10070
8293
4383
9440
3937
6895
3672
6346
5598
6933
5686
6600
8401
7035
6823
5580
4185
2436
8611
4223
1116
3538
3685
4025
9397
1559
4712
3132
7926
4749
5236
5776
7005
5141
8207
6649
7587
8471
1607
7895
8367
7299
2998
5759
4774
4949
2991
2083
4182
8393
